5 5
7 2 5 16 4 19 3 1 14 3 9 5 9 3 1 17 5 15 3 9 2 2 12 4 19 5 1 5 2 13 5 13 3 11 4 2 3 5 14 1 8 2 3 4 5 2 2 20 1 14 3 2
5 3 1 14 2 12 3 13 4 4 11 5 9 3 14 1 3 3 5 9 3 18 4 17 4 4 16 5 9 3 2 2 13 1 2 7
8 3 1 10 4 10 5 9 4 1 13 2 9 3 14 4 13 2 2 7 3 9 3 3 8 2 14 4 20 2 2 3 1 19 5 2 19 5 13 3 6 4 14 1 8 2 5 9 3 7 4 4 15 1 10 2 4 3 18
4 4 5 13 2 9 4 18 1 18 3 2 18 3 13 4 10 1 5 15 2 5 5 4 2
8 2 3 20 5 18 2 5 12 3 8 1 2 19 4 5 3 2 16 1 12 3 18 2 3 14 2 7 5 4 16 3 13 2 11 5 12 1 17 5 5 12 2 7 4 10 3 18 1 14 1 5 5